<?xml version="1.0" encoding="UTF-8"?><osil xmlns="os.optimizationservices.org" xmlns:xsi="http://www.w3.org/2001/XMLSchema-instance" xsi:schemaLocation="os.optimizationservices.org http://www.optimizationservices.org/schemas/2.0/OSiL.xsd"><instanceHeader><name>synthes3</name></instanceHeader><instanceData><variables numberOfVariables="17"><var name="x1" ub="2"/><var name="x2" ub="2"/><var name="x3" ub="1"/><var name="x4" ub="2"/><var name="x5" ub="2"/><var name="x6" ub="2"/><var name="x7" ub="2"/><var name="x8" ub="1"/><var name="x9" ub="3"/><var name="b10" type="B" ub="1"/><var name="b11" type="B" ub="1"/><var name="b12" type="B" ub="1"/><var name="b13" type="B" ub="1"/><var name="b14" type="B" ub="1"/><var name="b15" type="B" ub="1"/><var name="b16" type="B" ub="1"/><var name="b17" type="B" ub="1"/></variables><objectives><obj maxOrMin="min" constant="1.2e2" name="defObj_objvar" numberOfObjCoef="11"><coef idx="6">-40</coef><coef idx="7">15</coef><coef idx="8">-35</coef><coef idx="9">5</coef><coef idx="10">8</coef><coef idx="11">6</coef><coef idx="12">10</coef><coef idx="13">6</coef><coef idx="14">7</coef><coef idx="15">4</coef><coef idx="16">5</coef></obj></objectives><constraints numberOfConstraints="23"><con name="e1" ub="0"/><con name="e2" ub="0"/><con name="e3" ub="0"/><con name="e4" ub="0"/><con name="e5" ub="0"/><con name="e6" ub="0"/><con name="e7" ub="0"/><con name="e8" ub="0"/><con name="e9" ub="0"/><con name="e10" ub="0"/><con name="e11" ub="0"/><con name="e12" ub="1"/><con name="e13" ub="1"/><con name="e14" ub="0"/><con name="e15" ub="0"/><con name="e16" ub="0"/><con name="e17" ub="0"/><con name="e18" ub="0"/><con name="e19" ub="0"/><con name="e20" lb="1" ub="1"/><con name="e21" ub="1"/><con name="e22" lb="0" ub="0"/><con name="e23" ub="0"/></constraints><linearConstraintCoefficients numberOfValues="67"><start><el>0</el><el mult="2">1</el><el>10</el><el>18</el><el mult="5" incr="3">24</el><el>38</el><el mult="3" incr="1">40</el><el>44</el><el>47</el><el mult="3" incr="2">51</el><el mult="3" incr="2">58</el><el>65</el><el>67</el></start><colIdx><el>7</el><el mult="9" incr="1">0</el><el>0</el><el>1</el><el mult="6" incr="1">3</el><el mult="6" incr="1">3</el><el>4</el><el>5</el><el>7</el><el>3</el><el>6</el><el>8</el><el>4</el><el>5</el><el>7</el><el>4</el><el>5</el><el>7</el><el>2</el><el>3</el><el>2</el><el>3</el><el>9</el><el>10</el><el>6</el><el>11</el><el>4</el><el>5</el><el>12</el><el>3</el><el>6</el><el>8</el><el>13</el><el>4</el><el>14</el><el>5</el><el>15</el><el>2</el><el>3</el><el>16</el><el>9</el><el>10</el><el>12</el><el>13</el><el>12</el><el>14</el><el>15</el><el>11</el><el>16</el></colIdx><value><el mult="3">-1</el><el>1</el><el>2</el><el mult="2">.8</el><el>-.5</el><el>-1</el><el>-2</el><el mult="2">-1</el><el>2</el><el mult="2">.8</el><el>-2</el><el>-1</el><el mult="2">-2</el><el mult="2">-.8</el><el>2</el><el>1</el><el>2</el><el mult="2">-.8</el><el>1</el><el>-1</el><el mult="2">1</el><el mult="2">-.4</el><el>1.5</el><el mult="2">.16</el><el>-1.2</el><el>1</el><el>-.8</el><el>-1</el><el>.4</el><el mult="2">-10</el><el>1</el><el>-10</el><el mult="2">.8</el><el>-10</el><el>2</el><el mult="2">-2</el><el>-10</el><el>1</el><el>-10</el><el>1</el><el>-10</el><el mult="2">1</el><el>-10</el><el mult="4">1</el><el>-1</el><el mult="3">1</el><el>-1</el></value></linearConstraintCoefficients><nonlinearExpressions numberOfNonlinearExpressions="5"><nl idx="-1"><sum><exp><variable idx="0"/></exp><variable idx="0" coef="-10"/><exp><variable idx="1" coef=".833333"/></exp><variable idx="1" coef="-15"/><product><ln><sum><number value="1"/><variable idx="2"/><variable idx="3"/></sum></ln><number value="-65"/></product><variable idx="2" coef="15"/><variable idx="3" coef="80"/><product><ln><sum><number value="1"/><variable idx="4"/></sum></ln><number value="-90"/></product><variable idx="4" coef="25"/><product><ln><sum><number value="1"/><variable idx="5"/></sum></ln><number value="-80"/></product><variable idx="5" coef="35"/></sum></nl><nl idx="0"><sum><product><ln><sum><number value="1"/><variable idx="4"/></sum></ln><number value="-1.5"/></product><negate><ln><sum><number value="1"/><variable idx="5"/></sum></ln></negate></sum></nl><nl idx="1"><negate><ln><sum><number value="1"/><variable idx="2"/><variable idx="3"/></sum></ln></negate></nl><nl idx="11"><exp><variable idx="0"/></exp></nl><nl idx="12"><exp><variable idx="1" coef=".833333"/></exp></nl></nonlinearExpressions></instanceData></osil>